data/lp_files/q3/27_9.lp
\ Model foo
\ LP format - for model browsing. Use MPS format to capture full model detail.
Minimize
  z
Subject To
 allocateEach[1]: x[1,1] + x[2,1] = 1
 allocateEach[2]: x[1,2] + x[2,2] = 1
 allocateEach[3]: x[1,3] + x[2,3] = 1
 allocateEach[4]: x[1,4] + x[2,4] = 1
 allocateEach[5]: x[1,5] + x[2,5] = 1
 allocateEach[6]: x[1,6] + x[2,6] = 1
 allocateEach[7]: x[1,7] + x[2,7] = 1
 allocateAllCash: cashProportion[1] + cashProportion[2] = 1
 findWorstP[1,2]: z + 0.1883416517562859 cashProportion[1]
   - 0.1883416517562859 cashProportion[2] + 0.0788963179207082 x[1,1]
   + 0.0755250023542706 x[1,2] + 0.111611262830775 x[1,3]
   + 0.1264149166588191 x[1,4] + 0.0989735379979282 x[1,5]
   + 0.1615783030417177 x[1,6] + 0.1586590074394952 x[1,7]
   - 0.0788963179207082 x[2,1] - 0.0755250023542706 x[2,2]
   - 0.111611262830775 x[2,3] - 0.1264149166588191 x[2,4]
   - 0.0989735379979282 x[2,5] - 0.1615783030417177 x[2,6]
   - 0.1586590074394952 x[2,7] >= 0
 findWorstP[2,1]: z - 0.2289796666056055 cashProportion[1]
   + 0.2289796666056055 cashProportion[2] - 0.1910835317823777 x[1,1]
   - 0.1184282835684191 x[1,2] - 0.1068190144715149 x[1,3]
   - 0.0969270928741528 x[1,4] - 0.0365909507235757 x[1,5]
   - 0.0446739329547536 x[1,6] - 0.1764975270196006 x[1,7]
   + 0.1910835317823777 x[2,1] + 0.1184282835684191 x[2,2]
   + 0.1068190144715149 x[2,3] + 0.0969270928741528 x[2,4]
   + 0.0365909507235757 x[2,5] + 0.0446739329547536 x[2,6]
   + 0.1764975270196006 x[2,7] >= 0
Bounds
 z <= 1
 -infinity <= cashProportion[1] <= 1
 -infinity <= cashProportion[2] <= 1
Binaries
 x[1,1] x[1,2] x[1,3] x[1,4] x[1,5] x[1,6] x[1,7] x[2,1] x[2,2] x[2,3]
 x[2,4] x[2,5] x[2,6] x[2,7]
End
