data/mps_files/pEFS/27_9.mps
NAME foo
ROWS
 N  OBJ
 E  allocateEach[1]
 E  allocateEach[2]
 E  allocateEach[3]
 E  allocateEach[4]
 E  allocateEach[5]
 E  allocateEach[6]
 E  allocateEach[7]
 E  allocateAllCash
 G  findWorstP[1,2]
 G  findWorstP[2,1]
COLUMNS
    z         OBJ       1
    z         findWorstP[1,2]  1
    z         findWorstP[2,1]  1
    cashProportion[1]  allocateAllCash  1
    cashProportion[1]  findWorstP[1,2]  1.8834165175628595e-01
    cashProportion[1]  findWorstP[2,1]  -2.2897966660560545e-01
    cashProportion[2]  allocateAllCash  1
    cashProportion[2]  findWorstP[1,2]  -1.8834165175628595e-01
    cashProportion[2]  findWorstP[2,1]  2.2897966660560545e-01
    MARKER    'MARKER'                 'INTORG'
    x[1,1]    allocateEach[1]  1
    x[1,1]    findWorstP[1,2]  7.8896317920708156e-02
    x[1,1]    findWorstP[2,1]  -1.9108353178237772e-01
    x[1,2]    allocateEach[2]  1
    x[1,2]    findWorstP[1,2]  7.5525002354270648e-02
    x[1,2]    findWorstP[2,1]  -1.1842828356841911e-01
    x[1,3]    allocateEach[3]  1
    x[1,3]    findWorstP[1,2]  1.1161126283077502e-01
    x[1,3]    findWorstP[2,1]  -1.0681901447151493e-01
    x[1,4]    allocateEach[4]  1
    x[1,4]    findWorstP[1,2]  1.2641491665881910e-01
    x[1,4]    findWorstP[2,1]  -9.6927092874152770e-02
    x[1,5]    allocateEach[5]  1
    x[1,5]    findWorstP[1,2]  9.8973537997928226e-02
    x[1,5]    findWorstP[2,1]  -3.6590950723575745e-02
    x[1,6]    allocateEach[6]  1
    x[1,6]    findWorstP[1,2]  1.6157830304171766e-01
    x[1,6]    findWorstP[2,1]  -4.4673932954753609e-02
    x[1,7]    allocateEach[7]  1
    x[1,7]    findWorstP[1,2]  1.5865900743949524e-01
    x[1,7]    findWorstP[2,1]  -1.7649752701960064e-01
    x[2,1]    allocateEach[1]  1
    x[2,1]    findWorstP[1,2]  -7.8896317920708156e-02
    x[2,1]    findWorstP[2,1]  1.9108353178237772e-01
    x[2,2]    allocateEach[2]  1
    x[2,2]    findWorstP[1,2]  -7.5525002354270648e-02
    x[2,2]    findWorstP[2,1]  1.1842828356841911e-01
    x[2,3]    allocateEach[3]  1
    x[2,3]    findWorstP[1,2]  -1.1161126283077502e-01
    x[2,3]    findWorstP[2,1]  1.0681901447151493e-01
    x[2,4]    allocateEach[4]  1
    x[2,4]    findWorstP[1,2]  -1.2641491665881910e-01
    x[2,4]    findWorstP[2,1]  9.6927092874152770e-02
    x[2,5]    allocateEach[5]  1
    x[2,5]    findWorstP[1,2]  -9.8973537997928226e-02
    x[2,5]    findWorstP[2,1]  3.6590950723575745e-02
    x[2,6]    allocateEach[6]  1
    x[2,6]    findWorstP[1,2]  -1.6157830304171766e-01
    x[2,6]    findWorstP[2,1]  4.4673932954753609e-02
    x[2,7]    allocateEach[7]  1
    x[2,7]    findWorstP[1,2]  -1.5865900743949524e-01
    x[2,7]    findWorstP[2,1]  1.7649752701960064e-01
    MARKER    'MARKER'                 'INTEND'
RHS
    RHS1      allocateEach[1]  1
    RHS1      allocateEach[2]  1
    RHS1      allocateEach[3]  1
    RHS1      allocateEach[4]  1
    RHS1      allocateEach[5]  1
    RHS1      allocateEach[6]  1
    RHS1      allocateEach[7]  1
    RHS1      allocateAllCash  1
BOUNDS
 UP BND1      z         1
 MI BND1      cashProportion[1]
 UP BND1      cashProportion[1]  1
 MI BND1      cashProportion[2]
 UP BND1      cashProportion[2]  1
 BV BND1      x[1,1]  
 BV BND1      x[1,2]  
 BV BND1      x[1,3]  
 BV BND1      x[1,4]  
 BV BND1      x[1,5]  
 BV BND1      x[1,6]  
 BV BND1      x[1,7]  
 BV BND1      x[2,1]  
 BV BND1      x[2,2]  
 BV BND1      x[2,3]  
 BV BND1      x[2,4]  
 BV BND1      x[2,5]  
 BV BND1      x[2,6]  
 BV BND1      x[2,7]  
ENDATA
